
units           real
boundary        p p p
newton          off
pair_style      lj/charmmfsw/coul/long 10 12
pair_modify     mix arithmetic
kspace_style    pppm 1e-6

atom_style      full
bond_style      harmonic
angle_style     charmm
dihedral_style  charmmfsw
special_bonds   charmm
improper_style  harmonic

read_data       Graphene_PAM_equilibrium.data
group		    water id 1669:30276:1
delete_atoms    group water

write_data	    test.data








